Automatically generated mesh
       0
Gamma
 15 1 1
