polyacetylene literature    
1.0
        2.457         0.0000000000         0.0000000000
        0.0000000000        20.0000000000         0.0000000000
        0.0000000000         0.0000000000        20.1000000000
    C    H
    2    2
Cartesian
     1.000000000        10.000000000        10.00000000
     2.171219319        10.648973270        10.00000000
     1.000000000        8.9038364902        10.00000000
     2.171219319        11.745135004        10.00000000