Automatically generated mesh
       0
Gamma
 16 1 1
