PT                              
   1.0000000000000000     
     7.8122743821637686    0.0003703938035656   -0.0023909848299970
    -0.0233898450117722   23.5523740342000210   -0.0024572279183460
    -0.0075250102804266   -0.0025917511143734   24.5546684138898215
   C    H    S 
     8     4     2
Direct
  0.6862777602635873  0.5521993441867001  0.4888001483581876
  0.7580323906030421  0.4981332934474009  0.4887844415365082
  0.9382057220195796  0.4984203140433430  0.4888358367470281
  0.0091039196889979  0.5526554008131576  0.4887538396396675
  0.1863669467260765  0.5689824808911790  0.4888385183729287
  0.2583789211907038  0.6230331120757897  0.4888724660511500
  0.4385261133892026  0.6227903359433962  0.4887781778945355
  0.5091538156816087  0.5685703752520930  0.4887112234727201
  0.6811423718435989  0.4595104808781787  0.4888115450493645
  0.0162417320724305  0.4601181907949188  0.4888199366725184
  0.1815202534908847  0.6616123404929917  0.4887658756234077
  0.5165452174297016  0.6611487410777366  0.4887309042157649
  0.8473090387869499  0.6033306607872889  0.4887225472188656
  0.3470974984725596  0.5178615672378101  0.4887850512935677