Automatically generated mesh
       0
Gamma
7 5 9
0 0 0