Sr4 Cu2 O6
1.0
   7.855921254    0.000000000   0.000000000
   0.000000000    12.61591635   0.000000000
   0.000000000    0.000000000   3.516666449
Sr Cu O
8 4 12
direct
    0.0020000000000000    0.1469263750000000    0.5020000000000000  Sr2+
    0.25300000000000000   0.3530736250000000    0.0040000000000000  Sr2+
    0.25400000000000000   0.6469263750000001    0.0060000000000000  Sr2+
    0.0300000000000000    0.8530736249999999    0.5020000000000000  Sr2+
    0.5100000000000000    0.1469263750000000    0.5050000000000000  Sr2+
    0.74000000000000000   0.3530736250000000    0.0020000000000000  Sr2+
    0.75300000000000000   0.6469263750000001    0.0070000000000000  Sr2+
    0.5040000000000000    0.8530736249999999    0.5080000000000000  Sr2+
    0.25600000000000000   0.0000000000000000    0.0010000000000000  Cu2+
    0.0000000000000000    0.5000000000000000    0.5040000000000000  Cu2+
    0.75700000000000000   0.0000000000000000    0.0070000000000000  Cu2+
    0.5050000000000000    0.5000000000000000    0.5080000000000000  Cu2+
    0.0020000000000000    0.0000000000000000    0.0030000000000000  O2-
    0.0090000000000000    0.3458237100000000    0.5050000000000000  O2-
    0.25100000000000000   0.1541762900000000    0.0030000000000000  O2-
    0.25300000000000000   0.5000000000000000    0.5020000000000000  O2-
    0.25700000000000000   0.8458237100000000    0.0070000000000000  O2-
    0.0050000000000000    0.6541762900000000    0.5020000000000000  O2-
    0.5020000000000000    0.0000000000000000    0.030000000000000  O2-
    0.5070000000000000    0.3458237100000000    0.5050000000000000  O2-
    0.75200000000000000   0.1541762900000000    0.0020000000000000  O2-
    0.75700000000000000   0.5000000000000000    0.5030000000000000  O2-
    0.75900000000000000   0.8458237100000000    0.0060000000000000  O2-
    0.5020000000000000    0.6541762900000000    0.5030000000000000  O2-