SYSTEM = polyacetylene
NCORE = 2
ISMEAR = 0
SIGMA = 0.04
ENCUT = 600

EDIFF = 1E-8  