Auto
50
Linemode
reciprocal
0.0 0.0 0.0 ! \Gamma
0.5 0.0 0.0 ! X

0.5 0.0 0.0 ! X
0.5 0.0 0.5 ! M

0.5 0.0 0.5 ! M
0.0 0.0 0.5 ! Z

0.0 0.0 0.5 ! Z
0.0 0.5 0.0 ! Y

0.0 0.5 0.0 ! Y
0.0 0.0 0.0 ! \Gamma