SYSTEM = polyacetylene
NCORE = 2
ISMEAR = 0
SIGMA = 0.04
EDIFF = 1.0E-8
ENCUT = 600 
NELM = 200
PREC = Normal
NELMIN = 8

LHFCALC = .TRUE.
GGA = PE
HFSCREEN = 0.2