SYSTEM = polyacetylene
NCORE = 2
ISMEAR = 0
SIGMA = 0.04
EDIFF = 1.0E-8
ENCUT = 600 
NELM = 200
PREC = Normal
NELMIN = 8

LHFCALC = .TRUE. 
GGA     = B3
AEXX    = 0.2
AGGAX   = 0.72 
AGGAC   = 0.81 
ALDAC   = 0.19