polyacetylene B3LYP                
1.0
     2.45700000      0.00000000      0.00000000
     0.00000000     12.50000000      0.00000000
     0.00000000      0.00000000     12.60000000
C H
2 2
Cartesian
     0.97948052     2.00083303     5.00000000
     2.19173880     2.64814024     5.00000000
     0.97967785     0.91498226     5.00000000
     2.19154147     3.73398923     5.00000000