polyacetylene PBE            
1.0
     2.47100000      0.00000000      0.00000000
     0.00000000     12.50000000      0.00000000
     0.00000000      0.00000000     12.60000000
C H
2 2
Cartesian
     0.93699896      9.99951837      9.99999960
     2.17256226     10.64948122      9.99999962
     0.93681806      8.90348465     10.00000025
     2.17284004     11.74546053     10.00000053