Sr4 Cu2 O6
1.0
  7.8843820441088566     0.0000000000000000     0.0000000000000000
  0.0000000000000000    12.6200797895663488     0.0000000000000000
  0.0000000000000000     0.0000000000000000     3.5003657660145358
Sr   Cu   O
8   4   12
Direct
  0.0000000000000000     0.1471013530520173     0.5000000000000000
  0.2500000000000000     0.3528986469479827     0.0000000000000000
  0.2500000000000000     0.6471013530520173     0.0000000000000000
  0.0000000000000000     0.8528986469479827     0.5000000000000000
  0.5000000000000000     0.1471013530520173     0.5000000000000000
  0.7500000000000000     0.3528986469479827     0.0000000000000000
  0.7500000000000000     0.6471013530520173     0.0000000000000000
  0.5000000000000000     0.8528986469479827     0.5000000000000000
  0.2500000000000000     0.0000000000000000     0.0000000000000000
  0.0000000000000000     0.5000000000000000     0.5000000000000000
  0.7500000000000000     0.0000000000000000     0.0000000000000000
  0.5000000000000000     0.5000000000000000     0.5000000000000000
  0.0000000000000000     0.0000000000000000     0.0000000000000000
  0.0000000000000000     0.3447654852612356     0.5000000000000000
  0.2500000000000000     0.1552345147387644     0.0000000000000000
  0.2500000000000000     0.5000000000000000     0.5000000000000000
  0.2500000000000000     0.8447654852612356     0.0000000000000000
  0.0000000000000000     0.6552345147387644     0.5000000000000000
  0.5000000000000000     0.0000000000000000     0.0000000000000000
  0.5000000000000000     0.3447654852612356     0.5000000000000000
  0.7500000000000000     0.1552345147387644     0.0000000000000000
  0.7500000000000000     0.5000000000000000     0.5000000000000000
  0.7500000000000000     0.8447654852612356     0.0000000000000000
  0.5000000000000000     0.6552345147387644     0.5000000000000000