polyacetylene CCSD Lit      
1.0
     2.44924220      0.00000000      0.00000000
     0.00000000     20.00000000      0.00000000
     0.00000000      0.00000000     20.10000000
C H
2 2
Cartesian
     0.85468272      5.33904718     10.00000000
     2.03357544      4.66095282     10.00000000
     0.86243193      6.42901963     10.00000000
     2.02582624      3.57098037     10.00000000